data/lp_files/q3/49_6.lp
\ Model foo
\ LP format - for model browsing. Use MPS format to capture full model detail.
Minimize
  z
Subject To
 allocateEach[1]: x[1,1] + x[2,1] + x[3,1] = 1
 allocateEach[2]: x[1,2] + x[2,2] + x[3,2] = 1
 allocateEach[3]: x[1,3] + x[2,3] + x[3,3] = 1
 allocateEach[4]: x[1,4] + x[2,4] + x[3,4] = 1
 allocateEach[5]: x[1,5] + x[2,5] + x[3,5] = 1
 allocateEach[6]: x[1,6] + x[2,6] + x[3,6] = 1
 allocateEach[7]: x[1,7] + x[2,7] + x[3,7] = 1
 allocateEach[8]: x[1,8] + x[2,8] + x[3,8] = 1
 allocateEach[9]: x[1,9] + x[2,9] + x[3,9] = 1
 allocateAllCash: cashProportion[1] + cashProportion[2] + cashProportion[3]
   = 1
 findWorstP[1,2]: z + 0.0635576388337173 cashProportion[1]
   - 0.0635576388337173 cashProportion[2] + 0.1493127830301104 x[1,1]
   + 0.0121236196075316 x[1,2] + 0.0823865893382061 x[1,3]
   + 0.1071264002542305 x[1,4] + 0.1295463573528243 x[1,5]
   + 0.0672439818860729 x[1,6] + 0.1464526892825931 x[1,7]
   + 0.1022006832446175 x[1,8] + 0.1400492571700961 x[1,9]
   - 0.1493127830301104 x[2,1] - 0.0121236196075316 x[2,2]
   - 0.0823865893382061 x[2,3] - 0.1071264002542305 x[2,4]
   - 0.1295463573528243 x[2,5] - 0.0672439818860729 x[2,6]
   - 0.1464526892825931 x[2,7] - 0.1022006832446175 x[2,8]
   - 0.1400492571700961 x[2,9] >= 0
 findWorstP[1,3]: z + 0.0635576388337173 cashProportion[1]
   - 0.0635576388337173 cashProportion[3] + 0.1493127830301104 x[1,1]
   + 0.0121236196075316 x[1,2] + 0.0823865893382061 x[1,3]
   + 0.1071264002542305 x[1,4] + 0.1295463573528243 x[1,5]
   + 0.0672439818860729 x[1,6] + 0.1464526892825931 x[1,7]
   + 0.1022006832446175 x[1,8] + 0.1400492571700961 x[1,9]
   - 0.1493127830301104 x[3,1] - 0.0121236196075316 x[3,2]
   - 0.0823865893382061 x[3,3] - 0.1071264002542305 x[3,4]
   - 0.1295463573528243 x[3,5] - 0.0672439818860729 x[3,6]
   - 0.1464526892825931 x[3,7] - 0.1022006832446175 x[3,8]
   - 0.1400492571700961 x[3,9] >= 0
 findWorstP[2,1]: z - 0.0731154492944359 cashProportion[1]
   + 0.0731154492944359 cashProportion[2] - 0.134770051911969 x[1,1]
   - 0.0583461285369598 x[1,2] - 0.1743255099802588 x[1,3]
   - 0.0634459311252468 x[1,4] - 0.1464502449367551 x[1,5]
   - 0.0299956130730423 x[1,6] - 0.1093624332821525 x[1,7]
   - 0.1072420852526139 x[1,8] - 0.1029465526065658 x[1,9]
   + 0.134770051911969 x[2,1] + 0.0583461285369598 x[2,2]
   + 0.1743255099802588 x[2,3] + 0.0634459311252468 x[2,4]
   + 0.1464502449367551 x[2,5] + 0.0299956130730423 x[2,6]
   + 0.1093624332821525 x[2,7] + 0.1072420852526139 x[2,8]
   + 0.1029465526065658 x[2,9] >= 0
 findWorstP[2,3]: z + 0.0731154492944359 cashProportion[2]
   - 0.0731154492944359 cashProportion[3] + 0.134770051911969 x[2,1]
   + 0.0583461285369598 x[2,2] + 0.1743255099802588 x[2,3]
   + 0.0634459311252468 x[2,4] + 0.1464502449367551 x[2,5]
   + 0.0299956130730423 x[2,6] + 0.1093624332821525 x[2,7]
   + 0.1072420852526139 x[2,8] + 0.1029465526065658 x[2,9]
   - 0.134770051911969 x[3,1] - 0.0583461285369598 x[3,2]
   - 0.1743255099802588 x[3,3] - 0.0634459311252468 x[3,4]
   - 0.1464502449367551 x[3,5] - 0.0299956130730423 x[3,6]
   - 0.1093624332821525 x[3,7] - 0.1072420852526139 x[3,8]
   - 0.1029465526065658 x[3,9] >= 0
 findWorstP[3,1]: z - 0.0826839200446493 cashProportion[1]
   + 0.0826839200446493 cashProportion[3] - 0.172044566632904 x[1,1]
   - 0.0654236517353288 x[1,2] - 0.0387994294809517 x[1,3]
   - 0.2059863158112326 x[1,4] - 0.0720383653389007 x[1,5]
   - 0.157781590425202 x[1,6] - 0.0933088037703868 x[1,7]
   - 0.0678008144366124 x[1,8] - 0.0441325423238316 x[1,9]
   + 0.172044566632904 x[3,1] + 0.0654236517353288 x[3,2]
   + 0.0387994294809517 x[3,3] + 0.2059863158112326 x[3,4]
   + 0.0720383653389007 x[3,5] + 0.157781590425202 x[3,6]
   + 0.0933088037703868 x[3,7] + 0.0678008144366124 x[3,8]
   + 0.0441325423238316 x[3,9] >= 0
 findWorstP[3,2]: z - 0.0826839200446493 cashProportion[2]
   + 0.0826839200446493 cashProportion[3] - 0.172044566632904 x[2,1]
   - 0.0654236517353288 x[2,2] - 0.0387994294809517 x[2,3]
   - 0.2059863158112326 x[2,4] - 0.0720383653389007 x[2,5]
   - 0.157781590425202 x[2,6] - 0.0933088037703868 x[2,7]
   - 0.0678008144366124 x[2,8] - 0.0441325423238316 x[2,9]
   + 0.172044566632904 x[3,1] + 0.0654236517353288 x[3,2]
   + 0.0387994294809517 x[3,3] + 0.2059863158112326 x[3,4]
   + 0.0720383653389007 x[3,5] + 0.157781590425202 x[3,6]
   + 0.0933088037703868 x[3,7] + 0.0678008144366124 x[3,8]
   + 0.0441325423238316 x[3,9] >= 0
Bounds
 z <= 1
 -infinity <= cashProportion[1] <= 1
 -infinity <= cashProportion[2] <= 1
 -infinity <= cashProportion[3] <= 1
Binaries
 x[1,1] x[1,2] x[1,3] x[1,4] x[1,5] x[1,6] x[1,7] x[1,8] x[1,9] x[2,1]
 x[2,2] x[2,3] x[2,4] x[2,5] x[2,6] x[2,7] x[2,8] x[2,9] x[3,1] x[3,2]
 x[3,3] x[3,4] x[3,5] x[3,6] x[3,7] x[3,8] x[3,9]
End
