data/mps_files/q3/49_6.mps
NAME foo
ROWS
 N  OBJ
 E  allocateEach[1]
 E  allocateEach[2]
 E  allocateEach[3]
 E  allocateEach[4]
 E  allocateEach[5]
 E  allocateEach[6]
 E  allocateEach[7]
 E  allocateEach[8]
 E  allocateEach[9]
 E  allocateAllCash
 G  findWorstP[1,2]
 G  findWorstP[1,3]
 G  findWorstP[2,1]
 G  findWorstP[2,3]
 G  findWorstP[3,1]
 G  findWorstP[3,2]
COLUMNS
    z         OBJ       1
    z         findWorstP[1,2]  1
    z         findWorstP[1,3]  1
    z         findWorstP[2,1]  1
    z         findWorstP[2,3]  1
    z         findWorstP[3,1]  1
    z         findWorstP[3,2]  1
    cashProportion[1]  allocateAllCash  1
    cashProportion[1]  findWorstP[1,2]  6.3557638833717331e-02
    cashProportion[1]  findWorstP[1,3]  6.3557638833717331e-02
    cashProportion[1]  findWorstP[2,1]  -0.0731154492944359
    cashProportion[1]  findWorstP[3,1]  -0.0826839200446493
    cashProportion[2]  allocateAllCash  1
    cashProportion[2]  findWorstP[1,2]  -6.3557638833717331e-02
    cashProportion[2]  findWorstP[2,1]  0.0731154492944359
    cashProportion[2]  findWorstP[2,3]  0.0731154492944359
    cashProportion[2]  findWorstP[3,2]  -0.0826839200446493
    cashProportion[3]  allocateAllCash  1
    cashProportion[3]  findWorstP[1,3]  -6.3557638833717331e-02
    cashProportion[3]  findWorstP[2,3]  -0.0731154492944359
    cashProportion[3]  findWorstP[3,1]  0.0826839200446493
    cashProportion[3]  findWorstP[3,2]  0.0826839200446493
    MARKER    'MARKER'                 'INTORG'
    x[1,1]    allocateEach[1]  1
    x[1,1]    findWorstP[1,2]  1.4931278303011042e-01
    x[1,1]    findWorstP[1,3]  1.4931278303011042e-01
    x[1,1]    findWorstP[2,1]  -1.3477005191196897e-01
    x[1,1]    findWorstP[3,1]  -1.7204456663290404e-01
    x[1,2]    allocateEach[2]  1
    x[1,2]    findWorstP[1,2]  1.2123619607531581e-02
    x[1,2]    findWorstP[1,3]  1.2123619607531581e-02
    x[1,2]    findWorstP[2,1]  -5.8346128536959849e-02
    x[1,2]    findWorstP[3,1]  -6.5423651735328769e-02
    x[1,3]    allocateEach[3]  1
    x[1,3]    findWorstP[1,2]  8.2386589338206070e-02
    x[1,3]    findWorstP[1,3]  8.2386589338206070e-02
    x[1,3]    findWorstP[2,1]  -1.7432550998025881e-01
    x[1,3]    findWorstP[3,1]  -3.8799429480951692e-02
    x[1,4]    allocateEach[4]  1
    x[1,4]    findWorstP[1,2]  1.0712640025423055e-01
    x[1,4]    findWorstP[1,3]  1.0712640025423055e-01
    x[1,4]    findWorstP[2,1]  -6.3445931125246768e-02
    x[1,4]    findWorstP[3,1]  -2.0598631581123258e-01
    x[1,5]    allocateEach[5]  1
    x[1,5]    findWorstP[1,2]  1.2954635735282433e-01
    x[1,5]    findWorstP[1,3]  1.2954635735282433e-01
    x[1,5]    findWorstP[2,1]  -1.4645024493675513e-01
    x[1,5]    findWorstP[3,1]  -0.0720383653389007
    x[1,6]    allocateEach[6]  1
    x[1,6]    findWorstP[1,2]  6.7243981886072932e-02
    x[1,6]    findWorstP[1,3]  6.7243981886072932e-02
    x[1,6]    findWorstP[2,1]  -2.9995613073042330e-02
    x[1,6]    findWorstP[3,1]  -1.5778159042520204e-01
    x[1,7]    allocateEach[7]  1
    x[1,7]    findWorstP[1,2]  1.4645268928259314e-01
    x[1,7]    findWorstP[1,3]  1.4645268928259314e-01
    x[1,7]    findWorstP[2,1]  -1.0936243328215252e-01
    x[1,7]    findWorstP[3,1]  -9.3308803770386750e-02
    x[1,8]    allocateEach[8]  1
    x[1,8]    findWorstP[1,2]  1.0220068324461745e-01
    x[1,8]    findWorstP[1,3]  1.0220068324461745e-01
    x[1,8]    findWorstP[2,1]  -1.0724208525261386e-01
    x[1,8]    findWorstP[3,1]  -6.7800814436612428e-02
    x[1,9]    allocateEach[9]  1
    x[1,9]    findWorstP[1,2]  1.4004925717009611e-01
    x[1,9]    findWorstP[1,3]  1.4004925717009611e-01
    x[1,9]    findWorstP[2,1]  -1.0294655260656577e-01
    x[1,9]    findWorstP[3,1]  -4.4132542323831569e-02
    x[2,1]    allocateEach[1]  1
    x[2,1]    findWorstP[1,2]  -1.4931278303011042e-01
    x[2,1]    findWorstP[2,1]  1.3477005191196897e-01
    x[2,1]    findWorstP[2,3]  1.3477005191196897e-01
    x[2,1]    findWorstP[3,2]  -1.7204456663290404e-01
    x[2,2]    allocateEach[2]  1
    x[2,2]    findWorstP[1,2]  -1.2123619607531581e-02
    x[2,2]    findWorstP[2,1]  5.8346128536959849e-02
    x[2,2]    findWorstP[2,3]  5.8346128536959849e-02
    x[2,2]    findWorstP[3,2]  -6.5423651735328769e-02
    x[2,3]    allocateEach[3]  1
    x[2,3]    findWorstP[1,2]  -8.2386589338206070e-02
    x[2,3]    findWorstP[2,1]  1.7432550998025881e-01
    x[2,3]    findWorstP[2,3]  1.7432550998025881e-01
    x[2,3]    findWorstP[3,2]  -3.8799429480951692e-02
    x[2,4]    allocateEach[4]  1
    x[2,4]    findWorstP[1,2]  -1.0712640025423055e-01
    x[2,4]    findWorstP[2,1]  6.3445931125246768e-02
    x[2,4]    findWorstP[2,3]  6.3445931125246768e-02
    x[2,4]    findWorstP[3,2]  -2.0598631581123258e-01
    x[2,5]    allocateEach[5]  1
    x[2,5]    findWorstP[1,2]  -1.2954635735282433e-01
    x[2,5]    findWorstP[2,1]  1.4645024493675513e-01
    x[2,5]    findWorstP[2,3]  1.4645024493675513e-01
    x[2,5]    findWorstP[3,2]  -0.0720383653389007
    x[2,6]    allocateEach[6]  1
    x[2,6]    findWorstP[1,2]  -6.7243981886072932e-02
    x[2,6]    findWorstP[2,1]  2.9995613073042330e-02
    x[2,6]    findWorstP[2,3]  2.9995613073042330e-02
    x[2,6]    findWorstP[3,2]  -1.5778159042520204e-01
    x[2,7]    allocateEach[7]  1
    x[2,7]    findWorstP[1,2]  -1.4645268928259314e-01
    x[2,7]    findWorstP[2,1]  1.0936243328215252e-01
    x[2,7]    findWorstP[2,3]  1.0936243328215252e-01
    x[2,7]    findWorstP[3,2]  -9.3308803770386750e-02
    x[2,8]    allocateEach[8]  1
    x[2,8]    findWorstP[1,2]  -1.0220068324461745e-01
    x[2,8]    findWorstP[2,1]  1.0724208525261386e-01
    x[2,8]    findWorstP[2,3]  1.0724208525261386e-01
    x[2,8]    findWorstP[3,2]  -6.7800814436612428e-02
    x[2,9]    allocateEach[9]  1
    x[2,9]    findWorstP[1,2]  -1.4004925717009611e-01
    x[2,9]    findWorstP[2,1]  1.0294655260656577e-01
    x[2,9]    findWorstP[2,3]  1.0294655260656577e-01
    x[2,9]    findWorstP[3,2]  -4.4132542323831569e-02
    x[3,1]    allocateEach[1]  1
    x[3,1]    findWorstP[1,3]  -1.4931278303011042e-01
    x[3,1]    findWorstP[2,3]  -1.3477005191196897e-01
    x[3,1]    findWorstP[3,1]  1.7204456663290404e-01
    x[3,1]    findWorstP[3,2]  1.7204456663290404e-01
    x[3,2]    allocateEach[2]  1
    x[3,2]    findWorstP[1,3]  -1.2123619607531581e-02
    x[3,2]    findWorstP[2,3]  -5.8346128536959849e-02
    x[3,2]    findWorstP[3,1]  6.5423651735328769e-02
    x[3,2]    findWorstP[3,2]  6.5423651735328769e-02
    x[3,3]    allocateEach[3]  1
    x[3,3]    findWorstP[1,3]  -8.2386589338206070e-02
    x[3,3]    findWorstP[2,3]  -1.7432550998025881e-01
    x[3,3]    findWorstP[3,1]  3.8799429480951692e-02
    x[3,3]    findWorstP[3,2]  3.8799429480951692e-02
    x[3,4]    allocateEach[4]  1
    x[3,4]    findWorstP[1,3]  -1.0712640025423055e-01
    x[3,4]    findWorstP[2,3]  -6.3445931125246768e-02
    x[3,4]    findWorstP[3,1]  2.0598631581123258e-01
    x[3,4]    findWorstP[3,2]  2.0598631581123258e-01
    x[3,5]    allocateEach[5]  1
    x[3,5]    findWorstP[1,3]  -1.2954635735282433e-01
    x[3,5]    findWorstP[2,3]  -1.4645024493675513e-01
    x[3,5]    findWorstP[3,1]  0.0720383653389007
    x[3,5]    findWorstP[3,2]  0.0720383653389007
    x[3,6]    allocateEach[6]  1
    x[3,6]    findWorstP[1,3]  -6.7243981886072932e-02
    x[3,6]    findWorstP[2,3]  -2.9995613073042330e-02
    x[3,6]    findWorstP[3,1]  1.5778159042520204e-01
    x[3,6]    findWorstP[3,2]  1.5778159042520204e-01
    x[3,7]    allocateEach[7]  1
    x[3,7]    findWorstP[1,3]  -1.4645268928259314e-01
    x[3,7]    findWorstP[2,3]  -1.0936243328215252e-01
    x[3,7]    findWorstP[3,1]  9.3308803770386750e-02
    x[3,7]    findWorstP[3,2]  9.3308803770386750e-02
    x[3,8]    allocateEach[8]  1
    x[3,8]    findWorstP[1,3]  -1.0220068324461745e-01
    x[3,8]    findWorstP[2,3]  -1.0724208525261386e-01
    x[3,8]    findWorstP[3,1]  6.7800814436612428e-02
    x[3,8]    findWorstP[3,2]  6.7800814436612428e-02
    x[3,9]    allocateEach[9]  1
    x[3,9]    findWorstP[1,3]  -1.4004925717009611e-01
    x[3,9]    findWorstP[2,3]  -1.0294655260656577e-01
    x[3,9]    findWorstP[3,1]  4.4132542323831569e-02
    x[3,9]    findWorstP[3,2]  4.4132542323831569e-02
    MARKER    'MARKER'                 'INTEND'
RHS
    RHS1      allocateEach[1]  1
    RHS1      allocateEach[2]  1
    RHS1      allocateEach[3]  1
    RHS1      allocateEach[4]  1
    RHS1      allocateEach[5]  1
    RHS1      allocateEach[6]  1
    RHS1      allocateEach[7]  1
    RHS1      allocateEach[8]  1
    RHS1      allocateEach[9]  1
    RHS1      allocateAllCash  1
BOUNDS
 UP BND1      z         1
 MI BND1      cashProportion[1]
 UP BND1      cashProportion[1]  1
 MI BND1      cashProportion[2]
 UP BND1      cashProportion[2]  1
 MI BND1      cashProportion[3]
 UP BND1      cashProportion[3]  1
 BV BND1      x[1,1]  
 BV BND1      x[1,2]  
 BV BND1      x[1,3]  
 BV BND1      x[1,4]  
 BV BND1      x[1,5]  
 BV BND1      x[1,6]  
 BV BND1      x[1,7]  
 BV BND1      x[1,8]  
 BV BND1      x[1,9]  
 BV BND1      x[2,1]  
 BV BND1      x[2,2]  
 BV BND1      x[2,3]  
 BV BND1      x[2,4]  
 BV BND1      x[2,5]  
 BV BND1      x[2,6]  
 BV BND1      x[2,7]  
 BV BND1      x[2,8]  
 BV BND1      x[2,9]  
 BV BND1      x[3,1]  
 BV BND1      x[3,2]  
 BV BND1      x[3,3]  
 BV BND1      x[3,4]  
 BV BND1      x[3,5]  
 BV BND1      x[3,6]  
 BV BND1      x[3,7]  
 BV BND1      x[3,8]  
 BV BND1      x[3,9]  
ENDATA
